NAME: concorde91
TYPE: TSP
DIMENSION: 15 
EDGE_WEIGHT_TYPE: EUC_2D
NODE_COORD_SECTION
1 64 39
2 16 73
3 35 97
4 18 76
5 90 58
6 24 46
7 99 35
8 2 38
9 10 20
10 24 14
11 72 39
12 3 26
13 55 71
14 68 41
15 30 26
